NumGames = 9;
NumReferees = 26;
NumFields = 3;
game_id = [3514, 3515, 3519, 3520, 3521, 3522, 3523, 3524, 3525];
game_start = [900, 1110, 810, 540, 540, 630, 630, 720, 720];
game_end = [1020, 1230, 930, 660, 660, 750, 750, 840, 840];
difficulty = [3, 3, 1, 1, 1, 1, 1, 1, 1];
game_field = [1, 1, 2, 3, 2, 3, 2, 3, 2];
referee_id = [1206, 2468, 3256, 3260, 3262, 3263, 3267, 3276, 3475, 3517, 3524, 3526, 3539, 3614, 3640, 3734, 7484, 7486, 7494, 7496, 7498, 7503, 7506, 7533, 7551, 7552];
main_exp = [277, 124, 45, 147, 105, 135, 36, 7, 25, 34, 12, 57, 12, 6, 1, 21, 1, 14, 1, 0, 2, 18, 1, 6, 0, 1];
assist_exp = [151, 81, 51, 99, 79, 101, 133, 13, 27, 14, 61, 106, 97, 44, 32, 3, 17, 66, 12, 15, 24, 59, 42, 24, 0, 8];
available_slots = array3d(1..NumReferees, 1..3, 1..2,[
  720,1410, 0,0, 0,0,
  480,900, 0,0, 0,0,
  600,840, 0,0, 0,0,
  0,1440, 0,0, 0,0,
  780,1080, 0,0, 0,0,
  0,1440, 0,0, 0,0,
  720,1380, 0,0, 0,0,
  600,1080, 0,0, 0,0,
  1110,1440, 0,0, 0,0,
  900,1320, 0,0, 0,0,
  0,1440, 0,0, 0,0,
  540,770, 0,0, 0,0,
  0,1440, 0,0, 0,0,
  0,1440, 0,0, 0,0,
  840,1440, 0,0, 0,0,
  900,1230, 0,0, 0,0,
  0,840, 0,0, 0,0,
  0,1440, 0,0, 0,0,
  540,1080, 0,0, 0,0,
  0,1440, 0,0, 0,0,
  0,1080, 0,0, 0,0,
  0,780, 0,0, 0,0,
  0,660, 0,0, 0,0,
  480,690, 840,1410, 0,0,
  720,1050, 0,0, 0,0,
  0,1440, 0,0, 0,0,
]);